# Brittni Watkins
# CSE 8355
# 6 November 2018
# Homework 6: Network Flow Problem
# Data File

set NODES := 1 2 3 4;

set ARCS := (1, 2) (1, 3) (2, 3) (2, 4) (3, 4);

param: supply :=
  1      5
  2     -2
  3      0
  4     -3 ;   
  
 param: cost lower upper := 
  1 2    3     2     5
  1 3    2     0     2
  2 3    1     0     2
  2 4    4     1     3
  3 4    4     0     3 ;